61 
2 
61 -60 
-0.000000000000000000e+00  -0.000000000000000000e+00  -0.000000000000000000e+00  -0.000000000000000000e+00  -0.000000000000000000e+00  -0.000000000000000000e+00  -0.000000000000000000e+00  -0.000000000000000000e+00  -0.000000000000000000e+00  -0.000000000000000000e+00  -0.000000000000000000e+00  -0.000000000000000000e+00  -0.000000000000000000e+00  -0.000000000000000000e+00  -0.000000000000000000e+00  -0.000000000000000000e+00  -0.000000000000000000e+00  -0.000000000000000000e+00  -0.000000000000000000e+00  -0.000000000000000000e+00  -0.000000000000000000e+00  -0.000000000000000000e+00  -0.000000000000000000e+00  -0.000000000000000000e+00  -0.000000000000000000e+00  -0.000000000000000000e+00  -0.000000000000000000e+00  -0.000000000000000000e+00  -0.000000000000000000e+00  -0.000000000000000000e+00  -0.000000000000000000e+00  -0.000000000000000000e+00  -0.000000000000000000e+00  -0.000000000000000000e+00  -0.000000000000000000e+00  -0.000000000000000000e+00  -0.000000000000000000e+00  -0.000000000000000000e+00  -0.000000000000000000e+00  -0.000000000000000000e+00  -0.000000000000000000e+00  -0.000000000000000000e+00  -0.000000000000000000e+00  -0.000000000000000000e+00  -0.000000000000000000e+00  -0.000000000000000000e+00  -0.000000000000000000e+00  -0.000000000000000000e+00  -0.000000000000000000e+00  -0.000000000000000000e+00  -0.000000000000000000e+00  -0.000000000000000000e+00  -0.000000000000000000e+00  -0.000000000000000000e+00  -0.000000000000000000e+00  -0.000000000000000000e+00  -0.000000000000000000e+00  -0.000000000000000000e+00  -0.000000000000000000e+00  -0.000000000000000000e+00  1.000000000000000000e+00  
0 1 1 2 -1.950000000000000000e+01
0 1 2 2 1.850000000000000000e+01
0 1 5 5 2.000000000000000000e+01
0 1 5 6 -2.450000000000000000e+01
0 1 2 7 8.500000000000000000e+00
0 1 5 7 -2.000000000000000000e+00
0 1 3 8 -1.800000000000000000e+01
0 1 6 8 -1.700000000000000000e+01
0 1 8 9 1.500000000000000000e+01
0 1 5 11 2.350000000000000000e+01
0 1 2 12 1.950000000000000000e+01
0 1 3 12 6.500000000000000000e+00
0 1 9 12 2.000000000000000000e+01
0 1 7 13 5.000000000000000000e+00
0 1 3 14 -1.600000000000000000e+01
0 1 9 14 -1.400000000000000000e+01
0 1 2 15 1.150000000000000000e+01
0 1 3 15 -2.050000000000000000e+01
0 1 6 15 1.150000000000000000e+01
0 1 5 16 1.950000000000000000e+01
0 1 11 16 2.400000000000000000e+01
0 1 12 16 1.500000000000000000e+01
0 1 5 17 -8.500000000000000000e+00
0 1 9 17 4.500000000000000000e+00
0 1 11 17 3.500000000000000000e+00
0 1 13 17 -6.500000000000000000e+00
0 1 16 17 -9.000000000000000000e+00
0 1 1 18 -9.000000000000000000e+00
0 1 4 18 -1.200000000000000000e+01
0 1 5 18 -1.450000000000000000e+01
0 1 8 18 2.300000000000000000e+01
0 1 9 18 9.500000000000000000e+00
0 1 11 18 -6.500000000000000000e+00
0 1 13 18 1.200000000000000000e+01
0 1 17 18 5.500000000000000000e+00
0 1 1 19 1.000000000000000000e+01
0 1 13 19 2.500000000000000000e+00
0 1 16 19 -4.500000000000000000e+00
0 1 17 19 -5.000000000000000000e-01
0 1 2 20 1.000000000000000000e+01
0 1 5 20 1.750000000000000000e+01
0 1 16 20 1.750000000000000000e+01
0 1 17 20 -6.500000000000000000e+00
0 1 19 20 2.050000000000000000e+01
0 1 4 22 1.550000000000000000e+01
0 1 7 22 2.250000000000000000e+01
0 1 1 23 -2.100000000000000000e+01
0 1 2 23 1.050000000000000000e+01
0 1 3 23 1.600000000000000000e+01
0 1 15 23 8.500000000000000000e+00
0 1 17 23 6.000000000000000000e+00
0 1 20 23 -1.750000000000000000e+01
0 1 23 23 -1.650000000000000000e+01
0 1 11 24 -1.750000000000000000e+01
0 1 12 24 2.000000000000000000e+01
0 1 16 24 -2.200000000000000000e+01
0 1 19 24 5.500000000000000000e+00
0 1 20 24 2.350000000000000000e+01
0 1 23 24 2.050000000000000000e+01
0 1 3 25 -1.050000000000000000e+01
0 1 7 25 2.050000000000000000e+01
0 1 13 25 1.850000000000000000e+01
0 1 14 25 1.200000000000000000e+01
0 1 16 25 -5.000000000000000000e-01
0 1 18 25 2.100000000000000000e+01
0 1 23 25 -7.000000000000000000e+00
0 1 24 26 -1.100000000000000000e+01
0 1 5 27 2.300000000000000000e+01
0 1 14 27 -1.750000000000000000e+01
0 1 15 27 2.500000000000000000e+00
0 1 19 27 1.300000000000000000e+01
0 1 23 27 -2.100000000000000000e+01
0 1 25 27 2.300000000000000000e+01
0 1 26 27 4.000000000000000000e+00
0 1 3 28 5.000000000000000000e+00
0 1 11 28 1.300000000000000000e+01
0 1 15 28 1.400000000000000000e+01
0 1 25 28 -1.700000000000000000e+01
0 1 4 29 3.500000000000000000e+00
0 1 6 29 -2.100000000000000000e+01
0 1 10 29 2.450000000000000000e+01
0 1 11 29 8.000000000000000000e+00
0 1 15 29 -1.750000000000000000e+01
0 1 16 29 2.000000000000000000e+00
0 1 17 29 1.000000000000000000e+00
0 1 24 29 -1.350000000000000000e+01
0 1 26 29 -2.300000000000000000e+01
0 1 27 29 -2.200000000000000000e+01
0 1 29 29 -4.000000000000000000e+00
0 1 22 30 -2.000000000000000000e+01
0 1 25 30 1.750000000000000000e+01
0 1 3 31 -1.200000000000000000e+01
0 1 10 31 2.000000000000000000e+01
0 1 12 31 2.000000000000000000e+01
0 1 15 31 6.500000000000000000e+00
0 1 18 31 -6.500000000000000000e+00
0 1 26 31 5.000000000000000000e-01
0 1 2 32 1.650000000000000000e+01
0 1 5 32 7.500000000000000000e+00
0 1 7 32 -2.300000000000000000e+01
0 1 11 32 1.800000000000000000e+01
0 1 12 32 -2.100000000000000000e+01
0 1 20 32 -2.450000000000000000e+01
0 1 25 32 -4.000000000000000000e+00
0 1 26 32 8.000000000000000000e+00
0 1 1 33 1.750000000000000000e+01
0 1 8 33 1.550000000000000000e+01
0 1 32 33 4.000000000000000000e+00
0 1 6 34 2.000000000000000000e+01
0 1 15 34 -2.200000000000000000e+01
0 1 18 34 -5.500000000000000000e+00
0 1 20 34 1.050000000000000000e+01
0 1 25 34 -1.900000000000000000e+01
0 1 5 35 5.000000000000000000e-01
0 1 7 35 -8.500000000000000000e+00
0 1 10 35 -3.500000000000000000e+00
0 1 27 35 4.000000000000000000e+00
0 1 28 35 -5.000000000000000000e-01
0 1 33 35 -1.450000000000000000e+01
0 1 1 36 -2.450000000000000000e+01
0 1 2 36 -9.000000000000000000e+00
0 1 9 36 -1.500000000000000000e+00
0 1 25 36 -1.900000000000000000e+01
0 1 32 36 -2.000000000000000000e+01
0 1 34 36 -5.000000000000000000e-01
0 1 7 37 1.900000000000000000e+01
0 1 8 37 8.500000000000000000e+00
0 1 9 37 1.350000000000000000e+01
0 1 12 37 5.000000000000000000e+00
0 1 19 37 -4.000000000000000000e+00
0 1 20 37 -4.000000000000000000e+00
0 1 29 37 -2.450000000000000000e+01
0 1 30 37 -5.000000000000000000e-01
0 1 31 37 -7.500000000000000000e+00
0 1 1 38 -8.500000000000000000e+00
0 1 4 38 1.100000000000000000e+01
0 1 9 38 -2.250000000000000000e+01
0 1 10 38 1.250000000000000000e+01
0 1 11 38 4.500000000000000000e+00
0 1 20 38 6.500000000000000000e+00
0 1 26 38 4.000000000000000000e+00
0 1 28 38 -4.000000000000000000e+00
0 1 33 38 5.000000000000000000e+00
0 1 37 38 -5.500000000000000000e+00
0 1 38 38 1.850000000000000000e+01
0 1 4 39 -1.500000000000000000e+00
0 1 12 39 -2.000000000000000000e+00
0 1 18 39 1.600000000000000000e+01
0 1 19 39 -1.650000000000000000e+01
0 1 36 39 -1.700000000000000000e+01
0 1 5 40 -1.750000000000000000e+01
0 1 30 40 -1.250000000000000000e+01
0 1 3 41 9.000000000000000000e+00
0 1 15 41 1.800000000000000000e+01
0 1 19 41 -6.000000000000000000e+00
0 1 31 41 -1.150000000000000000e+01
0 1 33 41 1.800000000000000000e+01
0 1 35 41 2.150000000000000000e+01
0 1 36 41 2.400000000000000000e+01
0 1 39 41 7.000000000000000000e+00
0 1 6 42 1.500000000000000000e+00
0 1 11 42 5.500000000000000000e+00
0 1 12 42 -2.450000000000000000e+01
0 1 13 42 -6.500000000000000000e+00
0 1 16 42 2.200000000000000000e+01
0 1 36 42 -8.000000000000000000e+00
0 1 41 42 -1.600000000000000000e+01
0 1 42 42 -1.250000000000000000e+01
0 1 3 43 6.500000000000000000e+00
0 1 8 43 4.000000000000000000e+00
0 1 11 43 1.000000000000000000e+00
0 1 23 43 1.700000000000000000e+01
0 1 27 43 -2.400000000000000000e+01
0 1 28 43 -1.000000000000000000e+01
0 1 2 44 -1.550000000000000000e+01
0 1 5 44 2.150000000000000000e+01
0 1 8 44 1.900000000000000000e+01
0 1 9 44 1.750000000000000000e+01
0 1 10 44 -2.250000000000000000e+01
0 1 14 44 -5.000000000000000000e+00
0 1 20 44 1.100000000000000000e+01
0 1 24 44 -1.550000000000000000e+01
0 1 27 44 6.000000000000000000e+00
0 1 30 44 5.500000000000000000e+00
0 1 38 44 -2.500000000000000000e+00
0 1 39 44 7.000000000000000000e+00
0 1 6 45 -1.250000000000000000e+01
0 1 18 45 1.850000000000000000e+01
0 1 19 45 5.000000000000000000e+00
0 1 21 45 -1.150000000000000000e+01
0 1 23 45 -6.000000000000000000e+00
0 1 24 45 1.550000000000000000e+01
0 1 26 45 2.000000000000000000e+00
0 1 27 45 -1.500000000000000000e+01
0 1 28 45 -6.500000000000000000e+00
0 1 35 45 1.300000000000000000e+01
0 1 36 45 -1.350000000000000000e+01
0 1 41 45 1.250000000000000000e+01
0 1 43 45 7.000000000000000000e+00
0 1 13 46 -5.000000000000000000e-01
0 1 14 46 -2.250000000000000000e+01
0 1 15 46 -1.650000000000000000e+01
0 1 23 46 -1.750000000000000000e+01
0 1 37 46 -4.500000000000000000e+00
0 1 38 46 -1.800000000000000000e+01
0 1 12 47 1.200000000000000000e+01
0 1 13 47 -5.500000000000000000e+00
0 1 16 47 9.500000000000000000e+00
0 1 18 47 6.500000000000000000e+00
0 1 20 47 1.500000000000000000e+00
0 1 24 47 1.750000000000000000e+01
0 1 25 47 1.650000000000000000e+01
0 1 33 47 -3.000000000000000000e+00
0 1 38 47 -4.000000000000000000e+00
0 1 44 47 1.150000000000000000e+01
0 1 45 47 -1.500000000000000000e+00
0 1 1 48 -1.250000000000000000e+01
0 1 31 48 -1.900000000000000000e+01
0 1 34 48 -2.350000000000000000e+01
0 1 35 48 -5.000000000000000000e-01
0 1 37 48 1.350000000000000000e+01
0 1 38 48 -2.150000000000000000e+01
0 1 1 49 -2.000000000000000000e+01
0 1 4 49 -6.000000000000000000e+00
0 1 7 49 -2.500000000000000000e+00
0 1 15 49 -4.500000000000000000e+00
0 1 16 49 8.000000000000000000e+00
0 1 27 49 -1.550000000000000000e+01
0 1 29 49 2.150000000000000000e+01
0 1 46 49 -6.500000000000000000e+00
0 1 11 50 -1.000000000000000000e+00
0 1 20 50 -2.050000000000000000e+01
0 1 23 50 -2.250000000000000000e+01
0 1 24 50 3.000000000000000000e+00
0 1 27 50 1.000000000000000000e+01
0 1 28 50 5.000000000000000000e-01
0 1 32 50 -1.550000000000000000e+01
0 1 33 50 1.000000000000000000e+00
0 1 42 50 2.150000000000000000e+01
0 1 49 50 -7.000000000000000000e+00
0 1 1 51 -3.000000000000000000e+00
0 1 4 51 -1.750000000000000000e+01
0 1 5 51 -2.400000000000000000e+01
0 1 9 51 1.050000000000000000e+01
0 1 29 51 -2.350000000000000000e+01
0 1 35 51 7.000000000000000000e+00
0 1 37 51 5.500000000000000000e+00
0 1 38 51 -6.500000000000000000e+00
0 1 46 51 -2.000000000000000000e+00
0 1 5 52 -4.000000000000000000e+00
0 1 8 52 1.250000000000000000e+01
0 1 10 52 7.500000000000000000e+00
0 1 15 52 5.000000000000000000e+00
0 1 18 52 -3.000000000000000000e+00
0 1 19 52 2.400000000000000000e+01
0 1 21 52 9.000000000000000000e+00
0 1 25 52 -5.000000000000000000e-01
0 1 29 52 -1.950000000000000000e+01
0 1 32 52 -2.350000000000000000e+01
0 1 46 52 1.900000000000000000e+01
0 1 17 53 4.000000000000000000e+00
0 1 32 53 2.100000000000000000e+01
0 1 38 53 1.900000000000000000e+01
0 1 39 53 2.350000000000000000e+01
0 1 51 53 -1.000000000000000000e+01
0 1 53 53 1.000000000000000000e+01
0 1 5 54 -1.000000000000000000e+00
0 1 7 54 1.900000000000000000e+01
0 1 22 54 1.950000000000000000e+01
0 1 24 54 1.250000000000000000e+01
0 1 27 54 5.000000000000000000e-01
0 1 30 54 8.000000000000000000e+00
0 1 34 54 1.350000000000000000e+01
0 1 36 54 3.000000000000000000e+00
0 1 45 54 1.450000000000000000e+01
0 1 46 54 -1.800000000000000000e+01
0 1 54 54 1.650000000000000000e+01
0 1 6 55 1.950000000000000000e+01
0 1 14 55 3.500000000000000000e+00
0 1 16 55 -5.500000000000000000e+00
0 1 25 55 -8.500000000000000000e+00
0 1 26 55 1.100000000000000000e+01
0 1 27 55 -7.000000000000000000e+00
0 1 39 55 -8.500000000000000000e+00
0 1 42 55 6.000000000000000000e+00
0 1 2 56 1.000000000000000000e+00
0 1 18 56 -5.500000000000000000e+00
0 1 23 56 -4.500000000000000000e+00
0 1 24 56 -7.000000000000000000e+00
0 1 26 56 -8.500000000000000000e+00
0 1 27 56 -2.500000000000000000e+00
0 1 29 56 -1.000000000000000000e+01
0 1 31 56 -2.450000000000000000e+01
0 1 36 56 -2.100000000000000000e+01
0 1 39 56 1.100000000000000000e+01
0 1 40 56 2.350000000000000000e+01
0 1 41 56 1.250000000000000000e+01
0 1 42 56 -1.500000000000000000e+00
0 1 44 56 -2.000000000000000000e+00
0 1 47 56 5.000000000000000000e+00
0 1 50 56 -1.550000000000000000e+01
0 1 51 56 1.900000000000000000e+01
0 1 3 57 -3.000000000000000000e+00
0 1 5 57 7.500000000000000000e+00
0 1 12 57 1.850000000000000000e+01
0 1 16 57 -8.000000000000000000e+00
0 1 19 57 2.450000000000000000e+01
0 1 20 57 -7.000000000000000000e+00
0 1 29 57 1.000000000000000000e+00
0 1 33 57 -6.500000000000000000e+00
0 1 34 57 7.500000000000000000e+00
0 1 36 57 1.800000000000000000e+01
0 1 37 57 -8.500000000000000000e+00
0 1 52 57 2.300000000000000000e+01
0 1 53 57 -5.500000000000000000e+00
0 1 55 57 1.950000000000000000e+01
0 1 9 58 1.500000000000000000e+01
0 1 15 58 -7.500000000000000000e+00
0 1 24 58 -1.550000000000000000e+01
0 1 29 58 -1.350000000000000000e+01
0 1 36 58 1.450000000000000000e+01
0 1 40 58 1.150000000000000000e+01
0 1 44 58 2.000000000000000000e+00
0 1 53 58 1.650000000000000000e+01
0 1 54 58 -1.650000000000000000e+01
0 1 56 58 2.350000000000000000e+01
0 1 57 58 1.350000000000000000e+01
0 1 6 59 -2.350000000000000000e+01
0 1 10 59 5.000000000000000000e-01
0 1 18 59 -1.650000000000000000e+01
0 1 28 59 4.000000000000000000e+00
0 1 29 59 -1.800000000000000000e+01
0 1 33 59 -1.450000000000000000e+01
0 1 38 59 1.600000000000000000e+01
0 1 39 59 2.050000000000000000e+01
0 1 46 59 2.050000000000000000e+01
0 1 47 59 -3.500000000000000000e+00
0 1 49 59 1.900000000000000000e+01
0 1 52 59 -2.500000000000000000e+00
0 1 54 59 -1.100000000000000000e+01
0 1 58 59 1.150000000000000000e+01
0 1 2 60 -1.100000000000000000e+01
0 1 3 60 1.050000000000000000e+01
0 1 17 60 1.050000000000000000e+01
0 1 19 60 -2.450000000000000000e+01
0 1 23 60 -2.200000000000000000e+01
0 1 25 60 3.000000000000000000e+00
0 1 33 60 2.250000000000000000e+01
0 1 34 60 -5.000000000000000000e-01
0 1 37 60 -1.550000000000000000e+01
0 1 43 60 1.750000000000000000e+01
0 1 45 60 1.150000000000000000e+01
0 1 48 60 1.050000000000000000e+01
0 1 50 60 -9.000000000000000000e+00
0 1 57 60 -8.500000000000000000e+00
0 1 58 60 -1.400000000000000000e+01
0 1 7 61 7.000000000000000000e+00
0 1 10 61 2.150000000000000000e+01
0 1 17 61 1.900000000000000000e+01
0 1 19 61 -1.900000000000000000e+01
0 1 20 61 2.450000000000000000e+01
0 1 22 61 8.000000000000000000e+00
0 1 33 61 3.500000000000000000e+00
0 1 34 61 1.650000000000000000e+01
0 1 35 61 1.600000000000000000e+01
0 1 38 61 -1.150000000000000000e+01
0 1 41 61 -1.500000000000000000e+01
0 1 49 61 -8.500000000000000000e+00
1 1 1 2 5.000000000000000000e-01
1 1 2 2 -1.000000000000000000e+00
1 2 1 1 -1.000000000000000000e+00
2 1 1 3 5.000000000000000000e-01
2 1 3 3 -1.000000000000000000e+00
2 2 2 2 -1.000000000000000000e+00
3 1 1 4 5.000000000000000000e-01
3 1 4 4 -1.000000000000000000e+00
3 2 3 3 -1.000000000000000000e+00
4 1 1 5 5.000000000000000000e-01
4 1 5 5 -1.000000000000000000e+00
4 2 4 4 -1.000000000000000000e+00
5 1 1 6 5.000000000000000000e-01
5 1 6 6 -1.000000000000000000e+00
5 2 5 5 -1.000000000000000000e+00
6 1 1 7 5.000000000000000000e-01
6 1 7 7 -1.000000000000000000e+00
6 2 6 6 -1.000000000000000000e+00
7 1 1 8 5.000000000000000000e-01
7 1 8 8 -1.000000000000000000e+00
7 2 7 7 -1.000000000000000000e+00
8 1 1 9 5.000000000000000000e-01
8 1 9 9 -1.000000000000000000e+00
8 2 8 8 -1.000000000000000000e+00
9 1 1 10 5.000000000000000000e-01
9 1 10 10 -1.000000000000000000e+00
9 2 9 9 -1.000000000000000000e+00
10 1 1 11 5.000000000000000000e-01
10 1 11 11 -1.000000000000000000e+00
10 2 10 10 -1.000000000000000000e+00
11 1 1 12 5.000000000000000000e-01
11 1 12 12 -1.000000000000000000e+00
11 2 11 11 -1.000000000000000000e+00
12 1 1 13 5.000000000000000000e-01
12 1 13 13 -1.000000000000000000e+00
12 2 12 12 -1.000000000000000000e+00
13 1 1 14 5.000000000000000000e-01
13 1 14 14 -1.000000000000000000e+00
13 2 13 13 -1.000000000000000000e+00
14 1 1 15 5.000000000000000000e-01
14 1 15 15 -1.000000000000000000e+00
14 2 14 14 -1.000000000000000000e+00
15 1 1 16 5.000000000000000000e-01
15 1 16 16 -1.000000000000000000e+00
15 2 15 15 -1.000000000000000000e+00
16 1 1 17 5.000000000000000000e-01
16 1 17 17 -1.000000000000000000e+00
16 2 16 16 -1.000000000000000000e+00
17 1 1 18 5.000000000000000000e-01
17 1 18 18 -1.000000000000000000e+00
17 2 17 17 -1.000000000000000000e+00
18 1 1 19 5.000000000000000000e-01
18 1 19 19 -1.000000000000000000e+00
18 2 18 18 -1.000000000000000000e+00
19 1 1 20 5.000000000000000000e-01
19 1 20 20 -1.000000000000000000e+00
19 2 19 19 -1.000000000000000000e+00
20 1 1 21 5.000000000000000000e-01
20 1 21 21 -1.000000000000000000e+00
20 2 20 20 -1.000000000000000000e+00
21 1 1 22 5.000000000000000000e-01
21 1 22 22 -1.000000000000000000e+00
21 2 21 21 -1.000000000000000000e+00
22 1 1 23 5.000000000000000000e-01
22 1 23 23 -1.000000000000000000e+00
22 2 22 22 -1.000000000000000000e+00
23 1 1 24 5.000000000000000000e-01
23 1 24 24 -1.000000000000000000e+00
23 2 23 23 -1.000000000000000000e+00
24 1 1 25 5.000000000000000000e-01
24 1 25 25 -1.000000000000000000e+00
24 2 24 24 -1.000000000000000000e+00
25 1 1 26 5.000000000000000000e-01
25 1 26 26 -1.000000000000000000e+00
25 2 25 25 -1.000000000000000000e+00
26 1 1 27 5.000000000000000000e-01
26 1 27 27 -1.000000000000000000e+00
26 2 26 26 -1.000000000000000000e+00
27 1 1 28 5.000000000000000000e-01
27 1 28 28 -1.000000000000000000e+00
27 2 27 27 -1.000000000000000000e+00
28 1 1 29 5.000000000000000000e-01
28 1 29 29 -1.000000000000000000e+00
28 2 28 28 -1.000000000000000000e+00
29 1 1 30 5.000000000000000000e-01
29 1 30 30 -1.000000000000000000e+00
29 2 29 29 -1.000000000000000000e+00
30 1 1 31 5.000000000000000000e-01
30 1 31 31 -1.000000000000000000e+00
30 2 30 30 -1.000000000000000000e+00
31 1 1 32 5.000000000000000000e-01
31 1 32 32 -1.000000000000000000e+00
31 2 31 31 -1.000000000000000000e+00
32 1 1 33 5.000000000000000000e-01
32 1 33 33 -1.000000000000000000e+00
32 2 32 32 -1.000000000000000000e+00
33 1 1 34 5.000000000000000000e-01
33 1 34 34 -1.000000000000000000e+00
33 2 33 33 -1.000000000000000000e+00
34 1 1 35 5.000000000000000000e-01
34 1 35 35 -1.000000000000000000e+00
34 2 34 34 -1.000000000000000000e+00
35 1 1 36 5.000000000000000000e-01
35 1 36 36 -1.000000000000000000e+00
35 2 35 35 -1.000000000000000000e+00
36 1 1 37 5.000000000000000000e-01
36 1 37 37 -1.000000000000000000e+00
36 2 36 36 -1.000000000000000000e+00
37 1 1 38 5.000000000000000000e-01
37 1 38 38 -1.000000000000000000e+00
37 2 37 37 -1.000000000000000000e+00
38 1 1 39 5.000000000000000000e-01
38 1 39 39 -1.000000000000000000e+00
38 2 38 38 -1.000000000000000000e+00
39 1 1 40 5.000000000000000000e-01
39 1 40 40 -1.000000000000000000e+00
39 2 39 39 -1.000000000000000000e+00
40 1 1 41 5.000000000000000000e-01
40 1 41 41 -1.000000000000000000e+00
40 2 40 40 -1.000000000000000000e+00
41 1 1 42 5.000000000000000000e-01
41 1 42 42 -1.000000000000000000e+00
41 2 41 41 -1.000000000000000000e+00
42 1 1 43 5.000000000000000000e-01
42 1 43 43 -1.000000000000000000e+00
42 2 42 42 -1.000000000000000000e+00
43 1 1 44 5.000000000000000000e-01
43 1 44 44 -1.000000000000000000e+00
43 2 43 43 -1.000000000000000000e+00
44 1 1 45 5.000000000000000000e-01
44 1 45 45 -1.000000000000000000e+00
44 2 44 44 -1.000000000000000000e+00
45 1 1 46 5.000000000000000000e-01
45 1 46 46 -1.000000000000000000e+00
45 2 45 45 -1.000000000000000000e+00
46 1 1 47 5.000000000000000000e-01
46 1 47 47 -1.000000000000000000e+00
46 2 46 46 -1.000000000000000000e+00
47 1 1 48 5.000000000000000000e-01
47 1 48 48 -1.000000000000000000e+00
47 2 47 47 -1.000000000000000000e+00
48 1 1 49 5.000000000000000000e-01
48 1 49 49 -1.000000000000000000e+00
48 2 48 48 -1.000000000000000000e+00
49 1 1 50 5.000000000000000000e-01
49 1 50 50 -1.000000000000000000e+00
49 2 49 49 -1.000000000000000000e+00
50 1 1 51 5.000000000000000000e-01
50 1 51 51 -1.000000000000000000e+00
50 2 50 50 -1.000000000000000000e+00
51 1 1 52 5.000000000000000000e-01
51 1 52 52 -1.000000000000000000e+00
51 2 51 51 -1.000000000000000000e+00
52 1 1 53 5.000000000000000000e-01
52 1 53 53 -1.000000000000000000e+00
52 2 52 52 -1.000000000000000000e+00
53 1 1 54 5.000000000000000000e-01
53 1 54 54 -1.000000000000000000e+00
53 2 53 53 -1.000000000000000000e+00
54 1 1 55 5.000000000000000000e-01
54 1 55 55 -1.000000000000000000e+00
54 2 54 54 -1.000000000000000000e+00
55 1 1 56 5.000000000000000000e-01
55 1 56 56 -1.000000000000000000e+00
55 2 55 55 -1.000000000000000000e+00
56 1 1 57 5.000000000000000000e-01
56 1 57 57 -1.000000000000000000e+00
56 2 56 56 -1.000000000000000000e+00
57 1 1 58 5.000000000000000000e-01
57 1 58 58 -1.000000000000000000e+00
57 2 57 57 -1.000000000000000000e+00
58 1 1 59 5.000000000000000000e-01
58 1 59 59 -1.000000000000000000e+00
58 2 58 58 -1.000000000000000000e+00
59 1 1 60 5.000000000000000000e-01
59 1 60 60 -1.000000000000000000e+00
59 2 59 59 -1.000000000000000000e+00
60 1 1 61 5.000000000000000000e-01
60 1 61 61 -1.000000000000000000e+00
60 2 60 60 -1.000000000000000000e+00
61 1 1 1 1.000000000000000000e+00
